etc/upTests/__reps/ExplicitVarSizeWithDefault/smallerNested2/0001.eprime.solution
language ESSENCE' 1.0
$ minion Nodes: 9
$ minion TotalTime: 0.00074
$ Savile Row TotalTime: 0.201
letting s_SetExplicit_SetExplicit_SetExplicitVarSize_tuple2 be [[[1, 1, 2;int(1..3)];int(1..1)], 
[[1, 1, 2;int(1..3)];int(1..1)];int(1..2)]
letting s_SetExplicit_SetExplicit_SetExplicitVarSize_tuple1 be [[[false, true, true;int(1..3)];int(1..1)], 
[[false, true, true;int(1..3)];int(1..1)];int(1..2)]
